
Gurobi 10.0.1 (linux64) logging started Fri Apr  4 10:12:38 2025

Set parameter LogFile to value "Results/OneScenarioExperiments/option2_with_equality_constraints_non_market_storage_forbidden.log"
Set parameter TimeLimit to value 84600
Warning: linear constraint 797496 and linear constraint 797497 have the same name "storage_equal[1,2,1]"
Warning: default constraint names used to write mps file
Gurobi Optimizer version 10.0.1 build v10.0.1rc0 (linux64)

CPU model: AMD EPYC 9654 96-Core Processor, instruction set [SSE2|AVX|AVX2|AVX512]
Thread count: 192 physical cores, 192 logical processors, using up to 32 threads

Academic license 656792 - for non-commercial use only - registered to b.___@student.vu.nl
Optimize a model with 1703600 rows, 1948128 columns and 7223504 nonzeros
Model fingerprint: 0x2b355d44
Coefficient statistics:
  Matrix range     [2e-01, 1e+00]
  Objective range  [6e-05, 2e+01]
  Bounds range     [0e+00, 0e+00]
  RHS range        [1e-02, 1e+03]
Presolve removed 1462602 rows and 1548265 columns
Presolve time: 4.32s
Presolved: 240998 rows, 399890 columns, 1511400 nonzeros

Concurrent LP optimizer: primal simplex, dual simplex, and barrier
Showing barrier log only...

Ordering time: 1.66s

Barrier statistics:
 AA' NZ     : 1.945e+06
 Factor NZ  : 2.160e+07 (roughly 240 MB of memory)
 Factor Ops : 1.926e+10 (less than 1 second per iteration)
 Threads    : 30

                  Objective                Residual
Iter       Primal          Dual         Primal    Dual     Compl     Time
   0  -7.21356044e+05  1.40688959e+09  7.82e+03 5.01e+02  2.27e+05     7s
   1  -3.42528905e+07  1.08799916e+09  1.98e+03 7.55e+01  5.05e+04     7s
   2  -3.58829527e+07  4.74475726e+08  4.78e+02 4.80e+00  9.27e+03     7s
   3  -2.03598826e+07  1.07403635e+08  7.14e+01 3.30e-01  1.48e+03     7s
   4  -6.02379164e+06  3.98095530e+07  1.35e+01 8.59e-02  3.82e+02     7s
   5  -2.24069904e+06  1.76889979e+07  3.71e+00 3.40e-02  1.41e+02     7s
   6  -7.75706093e+05  4.37275792e+06  1.09e+00 6.90e-03  3.40e+01     7s
   7  -2.79311139e+05  7.31665358e+05  3.31e-01 8.80e-04  6.64e+00     7s
   8  -2.40398538e+04  1.15047329e+05  2.24e-02 8.77e-05  8.09e-01     8s
   9  -1.01068137e+03  5.19328966e+04  9.20e-03 2.89e-05  3.07e-01     8s
  10   1.16381901e+04  3.47856632e+04  3.39e-03 1.32e-05  1.32e-01     8s
  11   1.45962018e+04  2.92454441e+04  2.23e-03 7.92e-06  8.36e-02     8s
  12   1.66896098e+04  2.57761307e+04  1.48e-03 4.50e-06  5.21e-02     8s
  13   1.91706008e+04  2.34484623e+04  6.50e-04 2.13e-06  2.43e-02     8s
  14   2.04466498e+04  2.24011382e+04  2.62e-04 9.78e-07  1.10e-02     8s
  15   2.10140718e+04  2.18400218e+04  1.10e-04 3.65e-07  4.66e-03     8s
  16   2.12250485e+04  2.16627379e+04  5.87e-05 1.78e-07  2.47e-03     8s
  17   2.13525619e+04  2.15512193e+04  2.83e-05 6.01e-08  1.13e-03     8s
  18   2.14295676e+04  2.15081960e+04  1.09e-05 1.84e-08  4.48e-04     8s
  19   2.14601403e+04  2.14975127e+04  4.76e-06 9.31e-09  2.12e-04     8s
  20   2.14787857e+04  2.14888757e+04  1.07e-06 2.13e-09  5.65e-05     9s
  21   2.14838910e+04  2.14862934e+04  2.30e-07 3.76e-10  1.34e-05     9s
  22   2.14848836e+04  2.14858664e+04  9.36e-08 1.27e-10  5.49e-06     9s
  23   2.14852528e+04  2.14857304e+04  4.61e-08 5.17e-11  2.67e-06     9s
  24   2.14855125e+04  2.14856706e+04  1.35e-08 2.06e-11  8.79e-07     9s
  25   2.14855857e+04  2.14856386e+04  4.78e-09 4.32e-12  2.95e-07     9s
  26   2.14856209e+04  2.14856290e+04  3.06e-08 2.29e-12  4.54e-08     9s
  27   2.14856275e+04  2.14856285e+04  2.98e-08 2.39e-12  5.33e-09     9s
  28   2.14856282e+04  2.14856284e+04  3.52e-07 2.54e-12  1.16e-09     9s

Barrier solved model in 28 iterations and 9.33 seconds (9.72 work units)
Optimal objective 2.14856282e+04

Crossover log...

   36876 DPushes remaining with DInf 0.0000000e+00                 9s
       0 DPushes remaining with DInf 0.0000000e+00                10s

   20003 PPushes remaining with PInf 1.5198703e-04                10s
       0 PPushes remaining with PInf 0.0000000e+00                10s

  Push phase complete: Pinf 0.0000000e+00, Dinf 1.9118750e-01     10s

Iteration    Objective       Primal Inf.    Dual Inf.      Time
   50883    2.1485628e+04   0.000000e+00   1.911875e-01     10s
   52088    2.1485628e+04   0.000000e+00   0.000000e+00     10s

Solved with barrier
Extra simplex iterations after uncrush: 3
   52091    2.1485628e+04   0.000000e+00   0.000000e+00     10s

Use crossover to convert LP symmetric solution to basic solution...
Crossover log...

    2816 DPushes remaining with DInf 0.0000000e+00                10s
       0 DPushes remaining with DInf 0.0000000e+00                11s

    4624 PPushes remaining with PInf 0.0000000e+00                11s
       0 PPushes remaining with PInf 0.0000000e+00                11s

  Push phase complete: Pinf 0.0000000e+00, Dinf 6.0269290e-12     11s

Iteration    Objective       Primal Inf.    Dual Inf.      Time
   69334    2.1486025e+04   0.000000e+00   3.040964e+06     16s
   76035    2.1486187e+04   0.000000e+00   1.250998e+07     21s
   79663    2.1486246e+04   0.000000e+00   7.644762e+06     27s
   81949    2.1486263e+04   0.000000e+00   6.630195e+06     30s
   85273    2.1486286e+04   0.000000e+00   7.371290e+06     37s
   86606    2.1486316e+04   0.000000e+00   5.271598e+06     41s
   87880    2.1486338e+04   0.000000e+00   6.003704e+06     46s
   89154    2.1486358e+04   0.000000e+00   9.189044e+06     51s
   90428    2.1486369e+04   0.000000e+00   4.858863e+06     56s
   91702    2.1486384e+04   0.000000e+00   6.953450e+06     62s
   92339    2.1486388e+04   0.000000e+00   8.577473e+05     65s
   93613    2.1486405e+04   0.000000e+00   7.052594e+06     71s
   94887    2.1486421e+04   0.000000e+00   5.683256e+06     76s
   96161    2.1486442e+04   0.000000e+00   4.569399e+07     83s
   96798    2.1486450e+04   0.000000e+00   2.748545e+07     86s
   98072    2.1486466e+04   0.000000e+00   4.465775e+06     93s
   98709    2.1486475e+04   0.000000e+00   6.835589e+06     97s
   99346    2.1486480e+04   0.000000e+00   3.093947e+06    100s
  100620    2.1486489e+04   0.000000e+00   1.316119e+05    106s
  101894    2.1486503e+04   0.000000e+00   4.201362e+06    112s
  103168    2.1486511e+04   0.000000e+00   4.073390e+06    118s
  103805    2.1486516e+04   0.000000e+00   2.891794e+06    121s
  105079    2.1486521e+04   0.000000e+00   1.117688e+07    127s
  105716    2.1486528e+04   0.000000e+00   9.356762e+06    130s
  106990    2.1486541e+04   0.000000e+00   6.139586e+06    138s
  107627    2.1486543e+04   0.000000e+00   2.290764e+05    141s
  108901    2.1486552e+04   0.000000e+00   5.264296e+06    149s
  109538    2.1486556e+04   0.000000e+00   2.866789e+06    152s
  110175    2.1486560e+04   0.000000e+00   4.538142e+06    155s
  111449    2.1486563e+04   0.000000e+00   1.896556e+06    162s
  112723    2.1486568e+04   0.000000e+00   1.408430e+05    168s
  113360    2.1486569e+04   0.000000e+00   7.609126e+05    171s
  114634    2.1486570e+04   0.000000e+00   1.930359e+05    178s
  115271    2.1486571e+04   0.000000e+00   1.395737e+05    182s
  115908    2.1486571e+04   0.000000e+00   3.082646e+05    185s
  117182    2.1486573e+04   0.000000e+00   1.587655e+05    193s
  117819    2.1486573e+04   0.000000e+00   3.502367e+05    197s
  119093    2.1486574e+04   0.000000e+00   1.306145e+05    204s
  119730    2.1486575e+04   0.000000e+00   3.592655e+05    209s
  120367    2.1486576e+04   0.000000e+00   2.250834e+05    213s
  121004    2.1486576e+04   0.000000e+00   1.122693e+05    217s
  121641    2.1486576e+04   0.000000e+00   5.917611e+04    221s
  122915    2.1486577e+04   0.000000e+00   8.836856e+04    229s
  123552    2.1486578e+04   0.000000e+00   1.353733e+05    232s
  124189    2.1486578e+04   0.000000e+00   3.776263e+04    236s
  125463    2.1486579e+04   0.000000e+00   3.682309e+04    242s
  126100    2.1486579e+04   0.000000e+00   2.016655e+05    246s
  127374    2.1486580e+04   0.000000e+00   5.984625e+04    254s
  128011    2.1486580e+04   0.000000e+00   1.607297e+06    257s
  128648    2.1486580e+04   0.000000e+00   2.146301e+04    261s
  129285    2.1486580e+04   0.000000e+00   9.461070e+04    265s
  130559    2.1486581e+04   0.000000e+00   1.561114e+05    274s
  131196    2.1486581e+04   0.000000e+00   5.132916e+05    278s
  131833    2.1486582e+04   0.000000e+00   1.742014e+05    282s
  132470    2.1486582e+04   0.000000e+00   1.462938e+04    287s
  133107    2.1486583e+04   0.000000e+00   6.351850e+04    290s
  134381    2.1486583e+04   0.000000e+00   2.342201e+04    298s
  135018    2.1486583e+04   0.000000e+00   9.086129e+04    303s
  135655    2.1486583e+04   0.000000e+00   6.947506e+03    307s
  136292    2.1486583e+04   0.000000e+00   1.858396e+04    311s
  137566    2.1486584e+04   0.000000e+00   1.886435e+05    319s
  138203    2.1486584e+04   0.000000e+00   1.356519e+05    323s
  138840    2.1486584e+04   0.000000e+00   1.732448e+04    326s
  139477    2.1486584e+04   0.000000e+00   2.627382e+04    330s
  140751    2.1486584e+04   0.000000e+00   1.026132e+04    338s
  141388    2.1486585e+04   0.000000e+00   1.031721e+04    342s
  142025    2.1486585e+04   0.000000e+00   1.245851e+04    346s
  143299    2.1486585e+04   0.000000e+00   3.707188e+03    353s
  143936    2.1486585e+04   0.000000e+00   1.813608e+04    358s
  144573    2.1486585e+04   0.000000e+00   2.839293e+04    363s
  145210    2.1486585e+04   0.000000e+00   1.193870e+04    367s
  146484    2.1486586e+04   0.000000e+00   1.063664e+04    374s
  147121    2.1486586e+04   0.000000e+00   4.276837e+03    378s
  147758    2.1486586e+04   0.000000e+00   5.263100e+03    381s
  148395    2.1486586e+04   0.000000e+00   3.363460e+03    385s
  149669    2.1486586e+04   0.000000e+00   4.493653e+04    395s
  150306    2.1486586e+04   0.000000e+00   3.688834e+03    398s
  150943    2.1486586e+04   0.000000e+00   1.005310e+04    403s
  151580    2.1486586e+04   0.000000e+00   5.896781e+03    408s
  152217    2.1486586e+04   0.000000e+00   9.892085e+03    412s
  152854    2.1486586e+04   0.000000e+00   9.628522e+03    416s
  153491    2.1486586e+04   0.000000e+00   2.899499e+03    420s
  154765    2.1486587e+04   0.000000e+00   2.775644e+03    429s
  155402    2.1486587e+04   0.000000e+00   2.873351e+03    434s
  156039    2.1486587e+04   0.000000e+00   1.054599e+04    439s
  156676    2.1486587e+04   0.000000e+00   1.804354e+03    444s
  157313    2.1486587e+04   0.000000e+00   2.166033e+03    448s
  157950    2.1486587e+04   0.000000e+00   5.695439e+03    453s
  158587    2.1486587e+04   0.000000e+00   1.868256e+04    459s
  159224    2.1486587e+04   0.000000e+00   3.334814e+03    463s
  159861    2.1486587e+04   0.000000e+00   1.592036e+03    468s
  160498    2.1486587e+04   0.000000e+00   1.879481e+03    473s
  161135    2.1486587e+04   0.000000e+00   1.451749e+03    478s
  161772    2.1486587e+04   0.000000e+00   2.942231e+03    483s
  162409    2.1486587e+04   0.000000e+00   4.927239e+03    488s
  163046    2.1486587e+04   0.000000e+00   9.439489e+02    494s
  163683    2.1486587e+04   0.000000e+00   1.192245e+03    498s
  164320    2.1486587e+04   0.000000e+00   1.365288e+03    504s
  164957    2.1486587e+04   0.000000e+00   4.823639e+03    509s
  165594    2.1486587e+04   0.000000e+00   3.500924e+03    514s
  166231    2.1486587e+04   0.000000e+00   4.952728e+03    520s
  166868    2.1486587e+04   0.000000e+00   2.423988e+03    525s
  167505    2.1486587e+04   0.000000e+00   7.479933e+03    531s
  168142    2.1486587e+04   0.000000e+00   1.506903e+04    537s
  168779    2.1486587e+04   0.000000e+00   2.991220e+03    542s
  169416    2.1486587e+04   0.000000e+00   7.310756e+03    547s
  170053    2.1486588e+04   0.000000e+00   2.162082e+03    551s
  170690    2.1486588e+04   0.000000e+00   2.265119e+03    555s
  171964    2.1486588e+04   0.000000e+00   1.783949e+03    564s
  172601    2.1486588e+04   0.000000e+00   1.569415e+03    569s
  173238    2.1486588e+04   0.000000e+00   1.185137e+04    574s
  173875    2.1486588e+04   0.000000e+00   3.434640e+03    579s
  174512    2.1486588e+04   0.000000e+00   5.614980e+03    584s
  175149    2.1486588e+04   0.000000e+00   4.008971e+03    590s
  175786    2.1486588e+04   0.000000e+00   2.238051e+03    595s
  176423    2.1486588e+04   0.000000e+00   5.604375e+02    601s
  177060    2.1486588e+04   0.000000e+00   4.445441e+03    607s
  177697    2.1486588e+04   0.000000e+00   9.622713e+03    612s
  178334    2.1486588e+04   0.000000e+00   1.366975e+03    617s
  178971    2.1486588e+04   0.000000e+00   8.031492e+02    622s
  179608    2.1486588e+04   0.000000e+00   1.286344e+03    628s
  180245    2.1486588e+04   0.000000e+00   9.091893e+02    634s
  180882    2.1486588e+04   0.000000e+00   4.206458e+03    640s
  181519    2.1486588e+04   0.000000e+00   2.824505e+03    645s
  182156    2.1486588e+04   0.000000e+00   2.545296e+03    650s
  182793    2.1486588e+04   0.000000e+00   1.374635e+03    656s
  183430    2.1486588e+04   0.000000e+00   4.291946e+02    662s
  184067    2.1486588e+04   0.000000e+00   5.504844e+02    669s
  184704    2.1486588e+04   0.000000e+00   1.125803e+03    674s
  185341    2.1486588e+04   0.000000e+00   3.120087e+02    679s
  185978    2.1486588e+04   0.000000e+00   2.644091e+02    685s
  186615    2.1486588e+04   0.000000e+00   9.599390e+02    690s
  187252    2.1486588e+04   0.000000e+00   1.468267e+03    695s
  187889    2.1486588e+04   0.000000e+00   7.427851e+02    700s
  188526    2.1486588e+04   0.000000e+00   6.146505e+02    706s
  189163    2.1486588e+04   0.000000e+00   7.012444e+02    711s
  189800    2.1486588e+04   0.000000e+00   2.253314e+02    715s
  190437    2.1486588e+04   0.000000e+00   3.624634e+02    721s
  191074    2.1486588e+04   0.000000e+00   7.466790e+01    725s
  192348    2.1486588e+04   0.000000e+00   1.804956e+02    734s
  192985    2.1486588e+04   0.000000e+00   4.314391e+02    738s
  193622    2.1486588e+04   0.000000e+00   1.987049e+01    743s
  194259    2.1486588e+04   0.000000e+00   4.695379e+02    747s
  194896    2.1486588e+04   0.000000e+00   2.662528e+02    752s
  195533    2.1486588e+04   0.000000e+00   7.355824e+01    757s
  196170    2.1486588e+04   0.000000e+00   1.540341e+02    762s
  196807    2.1486588e+04   0.000000e+00   4.111360e+01    768s
  197444    2.1486588e+04   0.000000e+00   1.091733e+01    773s
  198081    2.1486588e+04   0.000000e+00   3.294301e+01    777s
  198718    2.1486588e+04   0.000000e+00   2.412925e+00    782s
  199355    2.1486588e+04   0.000000e+00   2.294110e+00    787s
  199992    2.1486588e+04   0.000000e+00   1.390365e+00    791s
  200629    2.1486588e+04   0.000000e+00   4.884133e-01    795s
Extra simplex iterations after uncrush: 141696
  201206    2.1485628e+04   0.000000e+00   0.000000e+00    799s

Solved in 201206 iterations and 799.38 seconds (1025.74 work units)
Optimal objective  2.148562844e+04
